# Solution for model GasLib-40
# Objective value = 1.3659679093035646e+01
loadshed[innode_1] 0
loadshed[innode_2] 0
loadshed[innode_3] 0
loadshed[innode_4] 0
loadshed[innode_5] 0
loadshed[innode_6] 0
loadshed[innode_7] 0
loadshed[innode_8] 0
loadshed[source_1] -1.8755909611354160e-01
loadshed[source_2] -1.9716570518411691e-02
loadshed[source_3] 2.9367996223468107e-01
loadshed[sink_1] 0
loadshed[sink_2] 0
loadshed[sink_3] 0
loadshed[sink_4] 0
loadshed[sink_5] 0
loadshed[sink_6] 0
loadshed[sink_7] 0
loadshed[sink_8] 0
loadshed[sink_9] 0
loadshed[sink_10] 0
loadshed[sink_11] 0
loadshed[sink_12] 8.3524152416014130e-01
loadshed[sink_13] 0
loadshed[sink_14] 0
loadshed[sink_15] 0
loadshed[sink_16] 0
loadshed[sink_17] 0
loadshed[sink_18] 0
loadshed[sink_19] 0
loadshed[sink_20] 0
loadshed[sink_21] 0
loadshed[sink_22] 0
loadshed[sink_23] 0
loadshed[sink_24] 0
loadshed[sink_25] 0
loadshed[sink_26] 0
loadshed[sink_27] 0
loadshed[sink_28] 0
loadshed[sink_29] 0
flow[source_1,sink_3] 1.8774154738211649e+02
flow[innode_1,sink_16] 1.6354166666666970e+01
flow[innode_6,sink_13] 2.8168356963381811e+00
flow[sink_13,sink_14] -1.3537330970328487e+01
flow[sink_14,sink_10] -2.9891497636995155e+01
flow[sink_25,sink_26] 2.3165282090696624e+02
flow[sink_26,sink_9] 1.3160973772698648e+02
flow[sink_9,sink_18] 1.1525557106031981e+02
flow[sink_26,sink_4] 8.3688916513313416e+01
flow[sink_4,sink_20] 0
flow[sink_18,sink_6] 9.8901404393653138e+01
flow[sink_25,innode_8] -1.5503321404878014e+02
flow[sink_6,sink_7] 4.9838904393652683e+01
flow[sink_6,sink_22] 3.2708333333333641e+01
flow[sink_7,sink_24] 3.5402820906964358e+01
flow[sink_22,sink_1] 1.6354166666666970e+01
flow[sink_24,sink_21] 1.9048654240297690e+01
flow[sink_21,sink_12] 2.6944875736310228e+00
flow[sink_7,sink_5] -1.9180831799784244e+00
flow[sink_5,sink_17] -1.8272249846644968e+01
flow[sink_17,sink_4] -6.7334749846646673e+01
flow[sink_17,sink_8] 3.2708333333334949e+01
flow[sink_3,sink_23] 16.3541666666697
flow[sink_8,sink_20] 1.6354166666668277e+01
flow[sink_25,sink_20] 0
flow[sink_25,sink_15] -9.5790609221190735e+01
flow[sink_15,sink_29] -6.2549244675816624e+01
flow[sink_29,sink_28] 1.6354166666667879e+01
flow[sink_29,sink_2] 6.5949697878707454e+01
flow[sink_2,sink_15] 4.9595531212040790e+01
flow[sink_29,innode_7] -1.6120727588785863e+02
flow[innode_4,sink_19] 0
flow[sink_19,innode_3] 3.8529217582211963e+01
flow[innode_4,innode_5] 1.1166233097032975e+02
flow[sink_27,innode_5] -1.1166233097032975e+02
flow[sink_27,sink_19] 9.5308164303663077e+01
flow[sink_10,sink_11] 3.2708333333333641e+01
flow[sink_10,innode_2] -40.4247800547841
flow[sink_10,innode_3] -3.8529217582211963e+01
flow[innode_6,sink_25] -2.8168356963381811e+00
flow[sink_11,innode_1] 1.6354166666666970e+01
flow[sink_19,innode_2] 40.4247800547841
flow[source_3,innode_4] 1.1166233097032975e+02
flow[source_2,innode_7] 1.6120727588785863e+02
flow[sink_3,innode_8] 1.5503321404878014e+02
pressure[innode_1] 7.5675232369888846e+01
pressure[innode_2] 7.7963550263197561e+01
pressure[innode_3] 7.7878231673822356e+01
pressure[innode_4] 81.01325
pressure[innode_5] 8.0936442760785653e+01
pressure[innode_6] 7.4404410348849240e+01
pressure[innode_7] 81.01325
pressure[innode_8] 8.0385701726972243e+01
pressure[source_1] 81.01325
pressure[source_2] 81.01325
pressure[source_3] 81.01325
pressure[sink_1] 4.1299726078666275e+01
pressure[sink_2] 7.5031006622761467e+01
pressure[sink_3] 8.0385701726972243e+01
pressure[sink_4] 4.7448812772441144e+01
pressure[sink_5] 4.3514350124817042e+01
pressure[sink_6] 4.3400803689053646e+01
pressure[sink_7] 4.2716634329696639e+01
pressure[sink_8] 4.3641330271949506e+01
pressure[sink_9] 5.0212055736186144e+01
pressure[sink_10] 7.5826933677492391e+01
pressure[sink_11] 7.5675232369888846e+01
pressure[sink_12] 1.0132500000000002e+00
pressure[sink_13] 74.3888816043923
pressure[sink_14] 7.4413107811289350e+01
pressure[sink_15] 7.4869088144033171e+01
pressure[sink_16] 7.4653582535071166e+01
pressure[sink_17] 4.4875500662776695e+01
pressure[sink_18] 46.0417656545431
pressure[sink_19] 7.7963550263197561e+01
pressure[sink_20] 4.2501674848361219e+01
pressure[sink_21] 1.9720961485772501e+00
pressure[sink_22] 4.2363495221021282e+01
pressure[sink_23] 8.0220983715312457e+01
pressure[sink_24] 2.1830422959780158e+00
pressure[sink_25] 7.4404410348849240e+01
pressure[sink_26] 58.089238214529
pressure[sink_27] 8.0009851743534142e+01
pressure[sink_28] 7.6406304625160331e+01
pressure[sink_29] 76.7015868987775
interdiction[source_1,sink_3] 0
interdiction[innode_1,sink_16] 0
interdiction[innode_6,sink_13] 0
interdiction[sink_13,sink_14] 0
interdiction[sink_14,sink_10] 0
interdiction[sink_25,sink_26] 0
interdiction[sink_26,sink_9] 0
interdiction[sink_9,sink_18] 0
interdiction[sink_26,sink_4] 0
interdiction[sink_4,sink_20] 1
interdiction[sink_18,sink_6] 0
interdiction[sink_25,innode_8] 0
interdiction[sink_6,sink_7] 0
interdiction[sink_6,sink_22] 0
interdiction[sink_7,sink_24] 0
interdiction[sink_22,sink_1] 0
interdiction[sink_24,sink_21] 0
interdiction[sink_21,sink_12] 0
interdiction[sink_7,sink_5] 0
interdiction[sink_5,sink_17] 0
interdiction[sink_17,sink_4] 0
interdiction[sink_17,sink_8] 0
interdiction[sink_3,sink_23] 0
interdiction[sink_8,sink_20] 0
interdiction[sink_25,sink_20] 1
interdiction[sink_25,sink_15] 0
interdiction[sink_15,sink_29] 0
interdiction[sink_29,sink_28] 0
interdiction[sink_29,sink_2] 0
interdiction[sink_2,sink_15] 0
interdiction[sink_29,innode_7] 0
interdiction[innode_4,sink_19] 1
interdiction[sink_19,innode_3] 0
interdiction[innode_4,innode_5] 0
interdiction[sink_27,innode_5] 0
interdiction[sink_27,sink_19] 0
interdiction[sink_10,sink_11] 0
interdiction[sink_10,innode_2] 0
interdiction[sink_10,innode_3] 0
interdiction[innode_6,sink_25] 0
interdiction[sink_11,innode_1] 0
interdiction[sink_19,innode_2] 0
interdiction[source_3,innode_4] 0
interdiction[source_2,innode_7] 0
interdiction[sink_3,innode_8] 0
WCcheckFlow[source_1,sink_3] 39
WCcheckFlow[innode_1,sink_16] 1
WCcheckFlow[innode_6,sink_13] 13
WCcheckFlow[sink_13,sink_14] 12
WCcheckFlow[sink_14,sink_10] 11
WCcheckFlow[sink_25,sink_26] 15
WCcheckFlow[sink_26,sink_9] 13
WCcheckFlow[sink_9,sink_18] 12
WCcheckFlow[sink_26,sink_4] 1
WCcheckFlow[sink_4,sink_20] 0
WCcheckFlow[sink_18,sink_6] 11
WCcheckFlow[sink_25,innode_8] -36
WCcheckFlow[sink_6,sink_7] 8
WCcheckFlow[sink_6,sink_22] 2
WCcheckFlow[sink_7,sink_24] 3
WCcheckFlow[sink_22,sink_1] 1
WCcheckFlow[sink_24,sink_21] 2
WCcheckFlow[sink_21,sink_12] 1
WCcheckFlow[sink_7,sink_5] 4
WCcheckFlow[sink_5,sink_17] 3
WCcheckFlow[sink_17,sink_4] 0
WCcheckFlow[sink_17,sink_8] 2
WCcheckFlow[sink_3,sink_23] 1
WCcheckFlow[sink_8,sink_20] 1
WCcheckFlow[sink_25,sink_20] 0
WCcheckFlow[sink_25,sink_15] 6
WCcheckFlow[sink_15,sink_29] 5
WCcheckFlow[sink_29,sink_28] 1
WCcheckFlow[sink_29,sink_2] 1
WCcheckFlow[sink_2,sink_15] 0
WCcheckFlow[sink_29,innode_7] 2
WCcheckFlow[innode_4,sink_19] 0
WCcheckFlow[sink_19,innode_3] -5
WCcheckFlow[innode_4,innode_5] -2
WCcheckFlow[sink_27,innode_5] 3
WCcheckFlow[sink_27,sink_19] -4
WCcheckFlow[sink_10,sink_11] 3
WCcheckFlow[sink_10,innode_2] 1
WCcheckFlow[sink_10,innode_3] 6
WCcheckFlow[innode_6,sink_25] -14
WCcheckFlow[sink_11,innode_1] 2
WCcheckFlow[sink_19,innode_2] 0
WCcheckFlow[source_3,innode_4] -1
WCcheckFlow[source_2,innode_7] -1
WCcheckFlow[sink_3,innode_8] 37
